clingo.log
clingo version 5.7.1
Reading from calendar.cl
Solving...
Answer: 1
start(pres,1) assign(1,fri,1,pres) assign(1,fri,2,pres) end(pres,1) assign(7,mon,1,free) assign(7,mon,2,free) assign(7,thu,3,free) assign(7,thu,4,free) assign(16,mon,1,free) assign(16,mon,2,free) assign(16,wed,1,free) assign(16,wed,2,free) assign(16,thu,1,free) assign(16,thu,2,free) assign(1,fri,3,free) assign(1,fri,4,free) assign(3,sat,3,free) assign(3,sat,4,free) assign(5,fri,3,free) assign(5,fri,4,free) assign(5,sat,3,free) assign(5,sat,4,free) assign(6,fri,3,free) assign(6,fri,4,free) assign(9,fri,1,free) assign(9,fri,2,free) assign(11,fri,3,free) assign(11,fri,4,free) assign(12,fri,7,free) assign(12,fri,8,free) assign(13,fri,7,free) assign(13,fri,8,free) assign(14,sat,5,free) assign(14,sat,6,free) assign(15,sat,5,free) assign(15,sat,6,free) assign(20,fri,3,free) assign(20,fri,4,free) assign(23,sat,5,free) assign(23,sat,6,free) assign(24,fri,7,free) assign(24,fri,8,free) assign(24,sat,5,free) assign(24,sat,6,free) end(free,24) assign(2,fri,3,pm) assign(2,fri,4,pm) assign(3,fri,1,pm) assign(3,fri,2,pm) assign(3,sat,1,pm) assign(3,sat,2,pm) assign(5,fri,5,pm) assign(5,fri,6,pm) assign(5,fri,7,pm) assign(5,fri,8,pm) assign(5,sat,1,pm) assign(5,sat,2,pm) assign(6,fri,5,pm) assign(6,fri,6,pm) end(pm,6) assign(2,sat,1,fictpp) assign(2,sat,2,fictpp) assign(2,sat,3,fictpp) assign(2,sat,4,fictpp) assign(3,sat,5,fictpp) assign(3,sat,6,fictpp) assign(4,fri,1,fictpp) assign(4,fri,2,fictpp) assign(5,fri,1,fictpp) assign(5,fri,2,fictpp) assign(6,fri,1,fictpp) assign(6,fri,2,fictpp) assign(8,fri,5,fictpp) assign(8,fri,6,fictpp) end(fictpp,8) assign(11,fri,1,lm) assign(11,fri,2,lm) assign(11,sat,1,lm) assign(11,sat,2,lm) assign(12,fri,1,lm) assign(12,fri,2,lm) assign(13,fri,1,lm) assign(13,fri,2,lm) assign(13,sat,1,lm) assign(13,sat,2,lm) assign(14,fri,1,lm) assign(14,fri,2,lm) assign(14,sat,1,lm) assign(14,sat,2,lm) assign(15,fri,1,lm) assign(15,fri,2,lm) assign(15,sat,1,lm) assign(15,sat,2,lm) assign(17,sat,3,lm) assign(17,sat,4,lm) end(lm,17) assign(10,fri,5,gq) assign(10,fri,6,gq) assign(11,fri,5,gq) assign(11,fri,6,gq) assign(11,sat,3,gq) assign(11,sat,4,gq) assign(12,fri,5,gq) assign(12,fri,6,gq) assign(13,fri,5,gq) assign(13,fri,6,gq) end(gq,13) assign(17,fri,1,aslcweb) assign(17,fri,2,aslcweb) assign(17,fri,3,aslcweb) assign(17,fri,4,aslcweb) assign(17,sat,1,aslcweb) assign(17,sat,2,aslcweb) assign(17,sat,5,aslcweb) assign(17,sat,6,aslcweb) assign(20,fri,1,aslcweb) assign(20,fri,2,aslcweb) assign(21,fri,3,aslcweb) assign(21,fri,4,aslcweb) assign(21,fri,7,aslcweb) assign(21,fri,8,aslcweb) assign(21,sat,1,aslcweb) assign(21,sat,2,aslcweb) assign(21,sat,5,aslcweb) assign(21,sat,6,aslcweb) assign(22,sat,5,aslcweb) assign(22,sat,6,aslcweb) end(aslcweb,22) assign(2,fri,5,pgdi) assign(2,fri,6,pgdi) assign(2,fri,7,pgdi) assign(2,fri,8,pgdi) assign(8,fri,1,pgdi) assign(8,fri,2,pgdi) assign(8,fri,3,pgdi) assign(8,fri,4,pgdi) assign(8,sat,1,pgdi) assign(8,sat,2,pgdi) end(pgdi,8) assign(18,fri,3,pbd) assign(18,fri,4,pbd) assign(18,fri,5,pbd) assign(18,fri,6,pbd) assign(20,sat,3,pbd) assign(20,sat,4,pbd) assign(23,fri,1,pbd) assign(23,fri,2,pbd) assign(23,fri,7,pbd) assign(23,fri,8,pbd) assign(23,sat,1,pbd) assign(23,sat,2,pbd) assign(23,sat,3,pbd) assign(23,sat,4,pbd) assign(24,fri,5,pbd) assign(24,fri,6,pbd) assign(24,sat,1,pbd) assign(24,sat,2,pbd) assign(24,sat,3,pbd) assign(24,sat,4,pbd) end(pbd,24) assign(20,fri,5,smism) assign(20,fri,6,smism) assign(20,sat,1,smism) assign(20,sat,2,smism) assign(20,sat,5,smism) assign(20,sat,6,smism) assign(22,fri,5,smism) assign(22,fri,6,smism) assign(22,fri,7,smism) assign(22,fri,8,smism) assign(22,sat,1,smism) assign(22,sat,2,smism) assign(22,sat,3,smism) assign(22,sat,4,smism) end(smism,22) assign(7,tue,3,aeisg) assign(7,tue,4,aeisg) assign(1,sat,1,aeisg) assign(1,sat,2,aeisg) assign(2,fri,1,aeisg) assign(2,fri,2,aeisg) assign(2,sat,5,aeisg) assign(2,sat,6,aeisg) assign(3,fri,3,aeisg) assign(3,fri,4,aeisg) assign(4,fri,5,aeisg) assign(4,fri,6,aeisg) assign(4,sat,3,aeisg) assign(4,sat,4,aeisg) end(aeisg,7) assign(18,sat,3,aupm) assign(18,sat,4,aupm) assign(19,fri,3,aupm) assign(19,fri,4,aupm) assign(19,sat,1,aupm) assign(19,sat,2,aupm) assign(19,sat,3,aupm) assign(19,sat,4,aupm) assign(21,fri,5,aupm) assign(21,fri,6,aupm) assign(22,fri,3,aupm) assign(22,fri,4,aupm) assign(24,fri,1,aupm) assign(24,fri,2,aupm) end(aupm,24) assign(18,fri,1,md) assign(18,fri,2,md) assign(19,fri,5,md) assign(19,fri,6,md) assign(19,fri,7,md) assign(19,fri,8,md) assign(20,fri,7,md) assign(20,fri,8,md) assign(24,fri,3,md) assign(24,fri,4,md) end(md,24) assign(13,sat,3,efd) assign(13,sat,4,efd) assign(14,fri,7,efd) assign(14,fri,8,efd) assign(15,fri,3,efd) assign(15,fri,4,efd) assign(15,fri,7,efd) assign(15,fri,8,efd) assign(19,sat,5,efd) assign(19,sat,6,efd) end(efd,19) assign(13,sat,5,rdp) assign(13,sat,6,rdp) assign(14,fri,3,rdp) assign(14,fri,4,rdp) assign(14,fri,5,rdp) assign(14,fri,6,rdp) assign(14,sat,3,rdp) assign(14,sat,4,rdp) assign(19,fri,1,rdp) assign(19,fri,2,rdp) end(rdp,19) assign(7,wed,5,tssweb) assign(7,wed,6,tssweb) assign(7,wed,7,tssweb) assign(7,wed,8,tssweb) assign(1,fri,5,tssweb) assign(1,fri,6,tssweb) assign(1,fri,7,tssweb) assign(1,fri,8,tssweb) assign(1,sat,3,tssweb) assign(1,sat,4,tssweb) assign(1,sat,5,tssweb) assign(1,sat,6,tssweb) assign(3,fri,5,tssweb) assign(3,fri,6,tssweb) assign(3,fri,7,tssweb) assign(3,fri,8,tssweb) assign(6,sat,3,tssweb) assign(6,sat,4,tssweb) assign(6,sat,5,tssweb) assign(6,sat,6,tssweb) end(tssweb,7) assign(16,mon,7,tsmd) assign(16,mon,8,tsmd) assign(16,wed,7,tsmd) assign(16,wed,8,tsmd) assign(16,sat,5,tsmd) assign(16,sat,6,tsmd) assign(18,fri,7,tsmd) assign(18,fri,8,tsmd) assign(21,sat,3,tsmd) assign(21,sat,4,tsmd) end(tsmd,21) assign(16,tue,3,ismm) assign(16,tue,4,ismm) assign(16,tue,7,ismm) assign(16,tue,8,ismm) assign(16,thu,3,ismm) assign(16,thu,4,ismm) assign(16,thu,5,ismm) assign(16,thu,6,ismm) assign(16,fri,5,ismm) assign(16,fri,6,ismm) assign(16,fri,7,ismm) assign(16,fri,8,ismm) assign(16,sat,3,ismm) assign(16,sat,4,ismm) end(ismm,16) assign(16,mon,3,aes) assign(16,mon,4,aes) assign(15,fri,5,aes) assign(15,fri,6,aes) assign(15,sat,3,aes) assign(15,sat,4,aes) assign(18,sat,1,aes) assign(18,sat,2,aes) assign(21,fri,1,aes) assign(21,fri,2,aes) end(aes,21) assign(7,mon,7,aesid) assign(7,mon,8,aesid) assign(7,tue,5,aesid) assign(7,tue,6,aesid) assign(7,tue,7,aesid) assign(7,tue,8,aesid) assign(7,wed,3,aesid) assign(7,wed,4,aesid) assign(4,fri,7,aesid) assign(4,fri,8,aesid) assign(4,sat,1,aesid) assign(4,sat,2,aesid) assign(5,sat,5,aesid) assign(5,sat,6,aesid) assign(8,fri,7,aesid) assign(8,fri,8,aesid) assign(10,fri,7,aesid) assign(10,fri,8,aesid) assign(10,sat,5,aesid) assign(10,sat,6,aesid) end(aesid,10) assign(7,sat,3,cpcp) assign(7,sat,4,cpcp) assign(6,sat,1,cpcp) assign(6,sat,2,cpcp) assign(8,sat,3,cpcp) assign(8,sat,4,cpcp) assign(9,sat,3,cpcp) assign(9,sat,4,cpcp) assign(9,sat,5,cpcp) assign(9,sat,6,cpcp) assign(11,sat,5,cpcp) assign(11,sat,6,cpcp) assign(12,sat,1,cpcp) assign(12,sat,2,cpcp) end(cpcp,12) assign(7,mon,3,semu) assign(7,mon,4,semu) assign(10,fri,1,semu) assign(10,fri,2,semu) assign(10,fri,3,semu) assign(10,fri,4,semu) assign(10,sat,3,semu) assign(10,sat,4,semu) assign(13,fri,3,semu) assign(13,fri,4,semu) end(semu,13) assign(16,mon,5,cmasm) assign(16,mon,6,cmasm) assign(16,tue,1,cmasm) assign(16,tue,2,cmasm) assign(16,tue,5,cmasm) assign(16,tue,6,cmasm) assign(16,wed,3,cmasm) assign(16,wed,4,cmasm) assign(16,wed,5,cmasm) assign(16,wed,6,cmasm) assign(16,thu,7,cmasm) assign(16,thu,8,cmasm) assign(16,fri,1,cmasm) assign(16,fri,2,cmasm) assign(16,fri,3,cmasm) assign(16,fri,4,cmasm) assign(16,sat,1,cmasm) assign(16,sat,2,cmasm) assign(17,fri,7,cmasm) assign(17,fri,8,cmasm) end(cmasm,17) assign(7,tue,1,g3d) assign(7,tue,2,g3d) assign(7,wed,1,g3d) assign(7,wed,2,g3d) assign(7,thu,1,g3d) assign(7,thu,2,g3d) assign(7,thu,7,g3d) assign(7,thu,8,g3d) assign(7,sat,5,g3d) assign(7,sat,6,g3d) assign(8,sat,5,g3d) assign(8,sat,6,g3d) assign(9,fri,3,g3d) assign(9,fri,4,g3d) assign(10,sat,1,g3d) assign(10,sat,2,g3d) assign(12,fri,3,g3d) assign(12,fri,4,g3d) assign(12,sat,5,g3d) assign(12,sat,6,g3d) end(g3d,12) assign(7,thu,5,psawm1) assign(7,thu,6,psawm1) assign(7,fri,7,psawm1) assign(7,fri,8,psawm1) assign(6,fri,7,psawm1) assign(6,fri,8,psawm1) assign(11,fri,7,psawm1) assign(11,fri,8,psawm1) assign(12,sat,3,psawm1) assign(12,sat,4,psawm1) end(psawm1,12) assign(7,mon,5,psawm2) assign(7,mon,6,psawm2) assign(7,fri,5,psawm2) assign(7,fri,6,psawm2) assign(9,fri,5,psawm2) assign(9,fri,6,psawm2) assign(9,fri,7,psawm2) assign(9,fri,8,psawm2) assign(9,sat,1,psawm2) assign(9,sat,2,psawm2) end(psawm2,9) assign(17,fri,5,gru) assign(17,fri,6,gru) assign(18,sat,5,gru) assign(18,sat,6,gru) assign(22,fri,1,gru) assign(22,fri,2,gru) assign(23,fri,3,gru) assign(23,fri,4,gru) assign(23,fri,5,gru) assign(23,fri,6,gru) end(gru,23) assign(7,fri,1,vgp) assign(7,fri,2,vgp) assign(7,fri,3,vgp) assign(7,fri,4,vgp) assign(7,sat,1,vgp) assign(7,sat,2,vgp) assign(4,fri,3,vgp) assign(4,fri,4,vgp) assign(4,sat,5,vgp) assign(4,sat,6,vgp) end(vgp,7) start(free,1) start(pm,2) start(fictpp,2) start(lm,11) start(gq,10) start(aslcweb,17) start(pgdi,2) start(pbd,18) start(smism,20) start(aeisg,1) start(aupm,18) start(md,18) start(efd,13) start(rdp,13) start(tssweb,1) start(tsmd,16) start(ismm,16) start(aes,15) start(aesid,4) start(cpcp,6) start(semu,7) start(cmasm,16) start(g3d,7) start(psawm1,6) start(psawm2,7) start(gru,17) start(vgp,4) hoursCount(pres,2) hoursCount(free,40) hoursCount(pm,14) hoursCount(fictpp,14) hoursCount(lm,20) hoursCount(gq,10) hoursCount(aslcweb,20) hoursCount(pgdi,10) hoursCount(pbd,20) hoursCount(smism,14) hoursCount(aeisg,14) hoursCount(aupm,14) hoursCount(md,10) hoursCount(efd,10) hoursCount(rdp,10) hoursCount(tssweb,20) hoursCount(tsmd,10) hoursCount(ismm,14) hoursCount(aes,10) hoursCount(aesid,20) hoursCount(cpcp,14) hoursCount(semu,10) hoursCount(cmasm,20) hoursCount(g3d,20) hoursCount(psawm1,10) hoursCount(psawm2,10) hoursCount(gru,10) hoursCount(vgp,10)
SATISFIABLE

Models       : 1+
Calls        : 1
Time         : 65.621s (Solving: 0.96s 1st Model: 0.95s Unsat: 0.00s)
CPU Time     : 68.177s
Threads      : 4        (Winner: 0)
